# Solution for model teste
# Objective value = 3.0241429945261729e+01
y1 1
y2 1
y3 1
y4 1
y5 1
y6 1
y7 1
y8 1
y9 1
y10 1
y11 1
y12 1
y13 1
y14 1
y15 1
y16 1
y17 1
y18 1
y19 1
y20 1
x1 0
x2 0
x3 0
x4 0
x5 0
x6 0
x7 0
x8 1
x9 0
x10 0
x11 0
x12 0
x13 0
x14 0
x15 1
x16 0
x17 0
x18 0
x19 1
x20 0
x21 0
x22 0
x23 1
x24 0
x25 0
x26 0
x27 0
x28 0
x29 0
x30 0
x31 0
x32 0
x33 0
x34 0
x35 0
x36 0
x37 0
x38 1
x39 0
x40 0
x41 0
x42 0
x43 0
x44 0
x45 0
x46 0
x47 0
x48 0
x49 0
x50 0
x51 0
x52 0
x53 0
x54 0
x55 1
x56 0
x57 0
x58 0
x59 1
x60 0
x61 0
x62 0
x63 0
x64 0
x65 1
x66 0
x67 0
x68 0
x69 0
x70 0
x71 0
x72 0
x73 0
x74 0
x75 0
x76 0
x77 0
x78 1
x79 0
x80 0
x81 0
x82 0
x83 1
x84 0
x85 0
x86 0
x87 0
x88 0
x89 0
x90 0
x91 0
x92 0
x93 0
x94 0
x95 0
x96 0
x97 0
x98 0
x99 0
x100 0
z1_9 0
z1_18 0
z1_19 1
z1_20 0
z1_28 0
z1_29 0
z1_30 0
z2_64 0
z2_65 1
z2_74 0
z2_75 0
z3_39 0
z3_40 0
z3_49 0
z3_50 0
z3_59 1
z3_60 0
z4_7 0
z4_8 1
z4_9 0
z4_17 0
z4_18 0
z5_44 0
z5_45 0
z5_54 0
z5_55 1
z6_49 0
z6_50 0
z6_58 0
z6_59 1
z6_60 0
z6_69 0
z6_70 0
z7_83 1
z7_84 0
z7_85 0
z7_93 0
z7_94 0
z7_95 0
z8_8 1
z8_9 0
z8_18 0
z8_19 0
z9_68 0
z9_77 0
z9_78 1
z9_79 0
z9_87 0
z9_88 0
z9_89 0
z10_9 0
z10_10 0
z10_19 1
z10_20 0
z11_65 1
z11_66 0
z11_75 0
z11_76 0
z11_77 0
z12_14 0
z12_15 1
z12_23 0
z12_24 0
z12_25 0
z12_34 0
z12_35 0
z13_4 0
z13_5 0
z13_13 0
z13_14 0
z13_15 1
z13_24 0
z13_25 0
z14_71 0
z14_72 0
z14_73 0
z14_81 0
z14_82 0
z14_83 1
z14_92 0
z15_73 0
z15_74 0
z15_75 0
z15_83 1
z15_84 0
z15_85 0
z15_94 0
z16_4 0
z16_5 0
z16_14 0
z16_15 1
z17_27 0
z17_28 0
z17_29 0
z17_37 0
z17_38 1
z17_39 0
z17_48 0
z18_14 0
z18_15 1
z18_24 0
z18_25 0
z19_15 1
z19_16 0
z19_25 0
z19_26 0
z19_35 0
z20_12 0
z20_13 0
z20_22 0
z20_23 1
z20_32 0
z20_33 0
